NAME : OMNETRUN
COMMENT : 524.61
TYPE : CVRP
DIMENSION : 21
EDGE_WEIGHT_TYPE : EUC_2D
CAPACITY : 21
NODE_COORD_SECTION
1 0.107093 -0.77924
2 28.6366 -566.576
3 159.188 -1157.11
4 87.497 -2460.93
5 154.759 -2980.32
6 134.599 -3584.49
7 162.78 -4498.9
8 304.37 -160.983
9 407.478 -534.684
10 428.031 -1746.92
11 290.889 -2139.6
12 338.563 -4124.07
13 488.623 -4772.63
14 485.475 -5621.32
15 278.491 -5944.82
16 673.074 -795.928
17 658.229 -2570.67
18 572.712 -3130.69
19 526.23 -3666.97
20 507.019 -5236.71
21 915.999 -113.067
DEMAND_SECTION
1 0
2 1
3 1
4 1
5 1
6 1
7 1
8 1
9 1
10 1
11 1
12 1
13 1
14 1
15 1
16 1
17 1
18 1
19 1
20 1
21 1
DEPOT_SECTION
1
-1
EOF
